50
1000
165
165
164
162
161
161
159
157
156
156
155
155
155
154
154
153
151
150
149
148
148
146
146
146
145
144
138
138
137
137
136
135
134
133
132
131
131
130
124
123
121
120
120
119
119
117
117
117
116
114
